Optimal - objective value 130.00000000
      0 C                       130                       0
      2 x_0_1                    12                       0
      3 x_0_2                    22                       0
      4 x_0_3                    31                       0
      5 x_0_4                   123                       0
      6 x_1_0                    22                       0
      7 x_1_1       48.9999999999999                       0
      8 x_1_2       80.9999999999998                       0
      9 x_1_3       99.9999999999999                       0
     10 x_1_4                   112                       0
     12 x_2_1                    12                       0
     13 x_2_2       52.9999999999999                       0
     14 x_2_3       97.9999999999998                       0
     15 x_2_4                   111                       0
     17 x_3_1       44.9999999999999                       0
     18 x_3_2                    64                       0
     19 x_3_3                    65                       0
     20 x_3_4                    71                       0
     22 x_4_1                    31                       0
     23 x_4_2                    50                       0
     24 x_4_3                    56                       0
     25 x_4_4                   116                       0
     26 x_5_0                    33                       0
     27 x_5_1       46.9999999999999                       0
     28 x_5_2       61.9999999999999                       0
     29 x_5_3       67.9999999999999                       0
     30 x_5_4                    82                       0
     31 x_6_0                    17                       0
     32 x_6_1                    33                       0
     33 x_6_2       67.9999999999999                       0
     34 x_6_3       84.9999999999999                       0
     35 x_6_4       96.9999999999999                       0
     36 y_0_1_0                   1                       0
     41 y_0_2_0                   1                       0
     42 y_0_2_1                   1                     433
     45 y_0_2_4                   1                       0
     46 y_0_3_0                   1                       0
     49 y_0_3_3                   1                       0
     51 y_0_4_0                   1                       0
     56 y_0_5_0                   1                       0
     61 y_0_6_0                   1                       0
     66 y_1_2_0                   1                       0
     67 y_1_2_1                   1                       0
     70 y_1_2_4                   1                       0
     71 y_1_3_0                   1                       0
     73 y_1_3_2                   1                       0
     74 y_1_3_3                   1                       0
     75 y_1_3_4                   1                       0
     76 y_1_4_0                   1                       0
     78 y_1_4_2                   1                       0
     79 y_1_4_3                   1                     433
     80 y_1_4_4                   1                       0
     81 y_1_5_0                   1                       0
     83 y_1_5_2                   1                       0
     85 y_1_5_4                   1                       0
     86 y_1_6_0                   1                       0
     88 y_1_6_2                   1                       0
     90 y_1_6_4                   1                     433
     91 y_2_3_0                   1                       0
     93 y_2_3_2                   1                       0
     94 y_2_3_3                   1                       0
     96 y_2_4_0                   1                       0
     98 y_2_4_2                   1                       0
     99 y_2_4_3                   1                       0
    101 y_2_5_0                   1                       0
    103 y_2_5_2                   1                       0
    104 y_2_5_3                   1                       0
    106 y_2_6_0                   1                       0
    108 y_2_6_2                   1                       0
    109 y_2_6_3                   1                       0
    111 y_3_4_0                   1                       0
    113 y_3_4_2                   1                       0
    115 y_3_4_4                   1                       0
    116 y_3_5_0                   1                       0
    117 y_3_5_1                   1                       0
    121 y_3_6_0                   1                       0
    123 y_3_6_2                   1                       0
    127 y_4_5_1                   1                       0
    132 y_4_6_1                   1                       0
    133 y_4_6_2                   1                       0
    136 y_5_6_0                   1                       0
    138 y_5_6_2                   1                       0
